contest/ICPC/2014/欧洲/NWERC西北欧/all/knapsackcollection/data/secret/96-pattern7.in
100 9999991 4999996
42 5000037 42 5000037 42 5000037 42 5000037 42 5000037 42 5000037 42 5000037 42 5000037 42 5000037 42 5000037 42 5000037 42 5000037 42 5000037 42 5000037 42 5000037 42 5000037 42 5000037 42 5000037 42 5000037 42 5000037 42 5000037 42 5000037 42 5000037 42 5000037 42 5000037 42 5000037 42 5000037 42 5000037 42 5000037 42 5000037 42 5000037 42 5000037 42 5000037 42 5000037 42 5000037 42 5000037 42 5000037 42 5000037 42 5000037 42 5000037 42 5000037 42 5000037 42 5000037 42 5000037 42 5000037 42 5000037 42 5000037 42 5000037 42 5000037 42 5000037
