contest/ICPC/2014/欧洲/NWERC西北欧/all/knapsackcollection/data/secret/96-pattern7.ans
994999105
1004999095
999999100/1
